\ Model Routes
\ LP format - for model browsing. Use MPS format to capture full model detail.
Maximize
  - 191.7153353028244 R{0,0} + 623.2046552982704 R{0,1}
   + 623.2046552982704 R{0,2} - 249.2301939667805 R{0,3}
   + 222.8649545650627 R{0,4} + 892.5014194710873 R{0,5}
   + 777.0657150181676 R{0,6} + 486.6829182142316 R{0,7}
   + 342.0694441723078 R{0,8} + 227.0117100192371 R{0,9}
   + 449.0745601781551 R{0,10} + 96.79623890446209 R{0,11}
   + 752.5730659264523 R{0,12} + 426.0462613747952 R{0,13}
   + 486.6829182142316 R{0,14} - 256.140831891889 R{1,0}
   + 41.44651618699046 R{1,1} + 468.947430945026 R{1,2}
   + 113.0626312224127 R{1,3} + 290.3833328672779 R{1,4}
   + 788.6501778656678 R{1,5} + 776.9296196276225 R{1,6}
   + 705.4352080196788 R{1,7} + 984.0576478178625 R{1,8}
   + 1198.881248318718 R{2,0} + 1198.881248318718 R{2,1}
   - 278.4443928850388 R{2,2} - 59.13410337035452 R{2,3}
   + 602.7748664658451 R{2,4} + 1100.505917706273 R{2,5}
   + 947.5724883564153 R{2,6} + 483.550538090211 R{2,7}
   + 462.2985486765674 R{2,8} + 465.2175846111744 R{2,9}
   + 612.6274307492583 R{2,10} + 715.8814195652888 R{2,11}
   + 832.465065802254 R{2,12} + 431.6363045050689 R{2,13}
   + 725.5204037014555 R{2,14} - 260.2482995389823 R{3,0}
   + 637.8926476026959 R{3,1} + 1005.833610869225 R{3,2}
   + 1366.836328139346 R{3,3} + 1446.706222207832 R{3,4}
   + 940.2346328741708 R{3,5} + 760.85716830498 R{3,6}
   + 532.1834413691274 R{3,7} + 1449.785584458327 R{3,8}
   + 1085.181552031036 R{3,9} + 792.4336683923993 R{3,10}
   + 1687.718334362257 R{3,11} - 242.5208875955131 R{4,0}
   + 1066.379443184683 R{4,1} + 1576.196574514046 R{4,2}
   + 1240.602737022325 R{4,3} + 1405.892121602154 R{4,4}
   + 914.66711671503 R{4,5} + 1423.387370233514 R{4,6}
   + 1183.667891528174 R{4,7} + 1284.707462857032 R{4,8}
   + 1247.613661847813 R{4,9} + 2228.044014901966 R{4,10}
   + 1001.798051883206 R{4,11} + 1474.560543760875 R{4,12}
   + 1941.26217012516 R{4,13} - 231.9775664337766 R{5,0}
   + 166.8396544238635 R{5,1} + 729.4065638506388 R{5,2}
   + 866.1144926430113 R{5,3} + 950.2396216998723 R{5,4}
   + 427.8531276309369 R{5,5} + 809.5321712632801 R{5,6}
   + 627.6470481655867 R{5,7} + 809.5321712632801 R{5,8}
   + 1069.504617719417 R{5,9} + 709.7960015050667 R{5,10}
   + 405.2137928088974 R{5,11} + 888.7647577944601 R{5,12}
   - 231.1436095783099 R{6,0} + 1381.891878324568 R{6,1}
   + 2138.911397941406 R{6,2} + 2560.066428814385 R{6,3}
   + 1508.825607003099 R{6,4} + 856.9235136398202 R{6,5}
   + 22.29688405109431 R{6,6} + 2517.25090492227 R{6,7}
   + 1992.749109139732 R{6,8} + 2335.493109878961 R{6,9}
   + 2311.987430595922 R{6,10} + 1893.373881559605 R{6,11}
   + 1439.711095176367 R{6,12} + 1627.612494058268 R{6,13}
   + 1682.821931379594 R{6,14} + 2007.689286251346 R{6,15}
Subject To
 R00: R{0,0} <= 1
 R01: R{0,1} <= 1
 R02: R{0,2} <= 1
 R03: R{0,3} <= 1
 R04: R{0,4} <= 1
 R05: R{0,5} <= 1
 R06: R{0,6} <= 1
 R07: R{0,7} <= 1
 R08: R{0,8} <= 1
 R09: R{0,9} <= 1
 R010: R{0,10} <= 1
 R011: R{0,11} <= 1
 R012: R{0,12} <= 1
 R013: R{0,13} <= 1
 R014: R{0,14} <= 1
 R015: R{1,0} <= 1
 R016: R{1,1} <= 1
 R017: R{1,2} <= 1
 R018: R{1,3} <= 1
 R019: R{1,4} <= 1
 R020: R{1,5} <= 1
 R021: R{1,6} <= 1
 R022: R{1,7} <= 1
 R023: R{1,8} <= 1
 R024: R{2,0} <= 1
 R025: R{2,1} <= 1
 R026: R{2,2} <= 1
 R027: R{2,3} <= 1
 R028: R{2,4} <= 1
 R029: R{2,5} <= 1
 R030: R{2,6} <= 1
 R031: R{2,7} <= 1
 R032: R{2,8} <= 1
 R033: R{2,9} <= 1
 R034: R{2,10} <= 1
 R035: R{2,11} <= 1
 R036: R{2,12} <= 1
 R037: R{2,13} <= 1
 R038: R{2,14} <= 1
 R039: R{3,0} <= 1
 R040: R{3,1} <= 1
 R041: R{3,2} <= 1
 R042: R{3,3} <= 1
 R043: R{3,4} <= 1
 R044: R{3,5} <= 1
 R045: R{3,6} <= 1
 R046: R{3,7} <= 1
 R047: R{3,8} <= 1
 R048: R{3,9} <= 1
 R049: R{3,10} <= 1
 R050: R{3,11} <= 1
 R051: R{4,0} <= 1
 R052: R{4,1} <= 1
 R053: R{4,2} <= 1
 R054: R{4,3} <= 1
 R055: R{4,4} <= 1
 R056: R{4,5} <= 1
 R057: R{4,6} <= 1
 R058: R{4,7} <= 1
 R059: R{4,8} <= 1
 R060: R{4,9} <= 1
 R061: R{4,10} <= 1
 R062: R{4,11} <= 1
 R063: R{4,12} <= 1
 R064: R{4,13} <= 1
 R065: R{5,0} <= 1
 R066: R{5,1} <= 1
 R067: R{5,2} <= 1
 R068: R{5,3} <= 1
 R069: R{5,4} <= 1
 R070: R{5,5} <= 1
 R071: R{5,6} <= 1
 R072: R{5,7} <= 1
 R073: R{5,8} <= 1
 R074: R{5,9} <= 1
 R075: R{5,10} <= 1
 R076: R{5,11} <= 1
 R077: R{5,12} <= 1
 R078: R{6,0} <= 1
 R079: R{6,1} <= 1
 R080: R{6,2} <= 1
 R081: R{6,3} <= 1
 R082: R{6,4} <= 1
 R083: R{6,5} <= 1
 R084: R{6,6} <= 1
 R085: R{6,7} <= 1
 R086: R{6,8} <= 1
 R087: R{6,9} <= 1
 R088: R{6,10} <= 1
 R089: R{6,11} <= 1
 R090: R{6,12} <= 1
 R091: R{6,13} <= 1
 R092: R{6,14} <= 1
 R093: R{6,15} <= 1
 R1_0: R{0,0} + R{0,1} + R{0,2} + R{0,3} + R{0,4} + R{0,5} + R{0,6}
   + R{0,7} + R{0,8} + R{0,9} + R{0,10} + R{0,11} + R{0,12} + R{0,13}
   + R{0,14} <= 1
 R1_1: R{1,0} + R{1,1} + R{1,2} + R{1,3} + R{1,4} + R{1,5} + R{1,6}
   + R{1,7} + R{1,8} <= 1
 R1_2: R{2,0} + R{2,1} + R{2,2} + R{2,3} + R{2,4} + R{2,5} + R{2,6}
   + R{2,7} + R{2,8} + R{2,9} + R{2,10} + R{2,11} + R{2,12} + R{2,13}
   + R{2,14} <= 1
 R1_3: R{3,0} + R{3,1} + R{3,2} + R{3,3} + R{3,4} + R{3,5} + R{3,6}
   + R{3,7} + R{3,8} + R{3,9} + R{3,10} + R{3,11} <= 1
 R1_4: R{4,0} + R{4,1} + R{4,2} + R{4,3} + R{4,4} + R{4,5} + R{4,6}
   + R{4,7} + R{4,8} + R{4,9} + R{4,10} + R{4,11} + R{4,12} + R{4,13} <= 1
 R1_5: R{5,0} + R{5,1} + R{5,2} + R{5,3} + R{5,4} + R{5,5} + R{5,6}
   + R{5,7} + R{5,8} + R{5,9} + R{5,10} + R{5,11} + R{5,12} <= 1
 R1_6: R{6,0} + R{6,1} + R{6,2} + R{6,3} + R{6,4} + R{6,5} + R{6,6}
   + R{6,7} + R{6,8} + R{6,9} + R{6,10} + R{6,11} + R{6,12} + R{6,13}
   + R{6,14} + R{6,15} <= 1
 R2_0: 7 R{2,11} + 7 R{6,11} <= 7
 R2_1: 10 R{3,1} + 10 R{3,2} + 10 R{3,3} + 10 R{3,4} + 10 R{3,6}
   + 10 R{3,9} + 10 R{3,11} + 10 R{5,4} + 10 R{5,7} + 10 R{5,10}
   + 10 R{6,6} <= 10
 R2_2: <= 0
 R2_3: 4 R{4,8} + 4 R{5,1} + 4 R{5,2} + 4 R{5,5} <= 4
 R2_4: <= 0
 R2_5: 5 R{5,1} + 5 R{5,2} <= 5
 R2_6: 10 R{1,1} + 10 R{1,4} + 10 R{1,5} + 10 R{1,6} + 10 R{1,8}
   + 10 R{4,10} + 10 R{5,11} + 10 R{6,14} <= 10
 R2_7: 6 R{1,1} + 6 R{1,2} + 6 R{1,4} + 6 R{1,5} + 6 R{1,6} + 6 R{1,7}
   <= 6
 R2_8: <= 0
 R2_9: 12 R{2,11} + 12 R{4,1} + 12 R{4,2} + 12 R{4,3} + 12 R{4,4}
   + 12 R{4,5} + 12 R{4,7} + 12 R{4,8} + 12 R{4,9} + 12 R{4,10}
   + 12 R{4,11} + 12 R{4,12} + 12 R{4,13} <= 12
 R2_10: 8 R{0,6} + 8 R{2,7} + 8 R{6,1} + 8 R{6,2} + 8 R{6,4} + 8 R{6,7}
   + 8 R{6,12} + 8 R{6,14} <= 8
 R2_11: <= 0
 R2_12: <= 0
 R2_13: <= 0
 R2_14: <= 0
 R2_15: 11 R{0,0} + 11 R{0,1} + 11 R{0,2} + 11 R{4,1} + 11 R{4,2}
   + 11 R{4,13} <= 11
 R2_16: 5 R{0,6} + 5 R{0,7} + 5 R{0,12} + 5 R{0,14} + 5 R{2,11} <= 5
 R2_17: <= 0
 R2_18: <= 0
 R2_19: 11 R{4,1} + 11 R{4,2} + 11 R{4,3} + 11 R{4,4} + 11 R{4,6}
   + 11 R{4,7} + 11 R{4,8} + 11 R{4,9} + 11 R{4,13} + 11 R{5,5} + 11 R{6,5}
   + 11 R{6,7} <= 11
 R2_20: 13 R{2,5} + 13 R{2,9} + 13 R{2,13} + 13 R{3,4} + 13 R{3,8}
   + 13 R{3,10} + 13 R{4,12} + 13 R{5,12} + 13 R{6,1} + 13 R{6,2}
   + 13 R{6,3} + 13 R{6,4} + 13 R{6,9} + 13 R{6,12} <= 13
 R2_21: <= 0
 R2_22: <= 0
 R2_23: 14 R{0,1} + 14 R{0,2} + 14 R{0,7} + 14 R{0,9} + 14 R{0,14}
   + 14 R{2,0} + 14 R{2,1} + 14 R{2,6} + 14 R{2,8} + 14 R{2,12} + 14 R{6,3}
   + 14 R{6,7} + 14 R{6,10} + 14 R{6,14} + 14 R{6,15} <= 14
 R2_24: 10 R{1,8} + 10 R{2,13} + 10 R{3,1} + 10 R{3,2} + 10 R{3,3}
   + 10 R{3,5} + 10 R{3,6} + 10 R{3,7} + 10 R{3,10} + 10 R{4,10}
   + 10 R{5,4} + 10 R{5,6} + 10 R{5,7} + 10 R{5,8} <= 10
 R2_25: 13 R{4,1} + 13 R{4,2} + 13 R{4,4} + 13 R{4,5} + 13 R{4,6}
   + 13 R{4,9} + 13 R{4,11} + 13 R{4,12} + 13 R{4,13} <= 13
 R2_26: 6 R{5,1} + 6 R{5,2} + 6 R{5,3} + 6 R{5,4} + 6 R{5,6} + 6 R{5,7}
   + 6 R{5,8} + 6 R{5,9} + 6 R{5,11} <= 6
 R2_27: 5 R{0,8} + 5 R{1,3} + 5 R{3,7} + 5 R{5,4} + 5 R{5,6} + 5 R{5,8}
   + 5 R{5,9} + 5 R{6,1} + 5 R{6,2} + 5 R{6,3} + 5 R{6,4} + 5 R{6,5}
   + 5 R{6,7} + 5 R{6,8} + 5 R{6,9} + 5 R{6,10} + 5 R{6,11} + 5 R{6,12}
   + 5 R{6,13} + 5 R{6,14} + 5 R{6,15} <= 5
 R2_28: <= 0
 R2_29: <= 0
 R2_30: <= 0
 R2_31: <= 0
 R2_32: 7 R{0,4} + 7 R{0,5} + 7 R{5,3} + 7 R{5,5} + 7 R{5,11} <= 7
 R2_33: 12 R{1,7} + 12 R{3,6} + 12 R{3,9} + 12 R{3,10} + 12 R{4,10} <= 12
 R2_34: 5 R{3,8} + 5 R{6,12} + 5 R{6,13} <= 5
 R2_35: <= 0
 R2_36: <= 0
 R2_37: 5 R{3,1} + 5 R{3,2} + 5 R{3,3} + 5 R{3,5} + 5 R{3,6} + 5 R{3,7}
   + 5 R{5,6} + 5 R{5,7} + 5 R{5,8} <= 5
 R2_38: <= 0
 R2_39: <= 0
 R2_40: 15 R{2,3} + 15 R{2,4} + 15 R{2,5} + 15 R{2,9} <= 15
 R2_41: 5 R{2,14} + 5 R{3,2} + 5 R{3,3} + 5 R{3,4} + 5 R{3,8} + 5 R{3,11}
   + 5 R{4,3} + 5 R{4,4} + 5 R{4,7} + 5 R{4,8} + 5 R{4,12} + 5 R{6,8} <= 5
 R2_42: 4 R{2,3} + 4 R{2,4} + 4 R{2,5} + 4 R{2,9} <= 4
 R2_43: <= 0
 R2_44: <= 0
 R2_45: <= 0
 R2_46: 9 R{0,6} + 9 R{0,10} + 9 R{0,11} + 9 R{0,12} + 9 R{2,7} + 9 R{4,5}
   + 9 R{4,9} + 9 R{4,10} <= 9
 R2_47: 7 R{5,1} + 7 R{5,2} + 7 R{5,3} + 7 R{5,4} <= 7
 R2_48: 4 R{4,1} + 4 R{4,2} + 4 R{4,3} + 4 R{4,4} + 4 R{4,5} + 4 R{4,6}
   + 4 R{4,7} + 4 R{4,8} + 4 R{4,10} + 4 R{4,12} + 4 R{4,13} <= 4
 R2_49: <= 0
 R2_50: <= 0
 R2_51: 11 R{4,1} + 11 R{4,3} + 11 R{4,4} + 11 R{4,6} + 11 R{4,9}
   + 11 R{4,12} <= 11
 R2_52: 10 R{4,7} + 10 R{4,8} <= 10
 R2_53: 13 R{4,1} + 13 R{4,2} + 13 R{4,3} + 13 R{4,5} + 13 R{4,9}
   + 13 R{4,11} <= 13
 R2_54: 9 R{3,1} + 9 R{3,2} + 9 R{3,3} + 9 R{3,4} + 9 R{3,5} + 9 R{3,8}
   + 9 R{3,11} <= 9
 R2_55: 8 R{6,1} + 8 R{6,2} + 8 R{6,3} + 8 R{6,4} + 8 R{6,7} + 8 R{6,8}
   + 8 R{6,9} + 8 R{6,10} + 8 R{6,11} + 8 R{6,12} + 8 R{6,13} + 8 R{6,14}
   + 8 R{6,15} <= 8
 R2_56: 6 R{2,0} + 6 R{2,1} + 6 R{2,6} + 6 R{2,10} + 6 R{2,11} + 6 R{2,14}
   + 6 R{4,10} + 6 R{4,13} + 6 R{6,4} + 6 R{6,9} + 6 R{6,15} <= 6
 R2_57: <= 0
 R2_58: <= 0
 R2_59: 10 R{4,6} + 10 R{6,10} <= 10
 R2_60: <= 0
 R2_61: 9 R{2,8} + 9 R{2,10} + 9 R{2,12} + 9 R{2,14} + 9 R{4,6} <= 9
 R2_62: <= 0
 R2_63: <= 0
 R2_64: <= 0
 R2_65: 5 R{2,0} + 5 R{2,1} + 5 R{2,10} + 5 R{6,1} + 5 R{6,2} + 5 R{6,3}
   + 5 R{6,7} + 5 R{6,8} + 5 R{6,10} + 5 R{6,11} + 5 R{6,14} <= 5
 R2_66: 7 R{6,1} + 7 R{6,2} + 7 R{6,3} + 7 R{6,4} + 7 R{6,5} + 7 R{6,7}
   + 7 R{6,8} + 7 R{6,9} + 7 R{6,10} + 7 R{6,11} + 7 R{6,12} + 7 R{6,13}
   + 7 R{6,14} + 7 R{6,15} <= 7
 R2_67: 3 R{0,1} + 3 R{0,2} + 3 R{0,6} + 3 R{0,10} + 3 R{0,12} + 3 R{2,0}
   + 3 R{2,1} + 3 R{2,6} + 3 R{2,7} + 3 R{2,12} <= 3
 R2_68: 6 R{6,1} + 6 R{6,2} + 6 R{6,3} + 6 R{6,4} + 6 R{6,5} + 6 R{6,7}
   + 6 R{6,8} + 6 R{6,9} + 6 R{6,10} + 6 R{6,11} + 6 R{6,12} + 6 R{6,13}
   + 6 R{6,14} <= 6
 R2_69: 7 R{0,8} + 7 R{1,4} + 7 R{4,1} + 7 R{4,2} + 7 R{4,3} + 7 R{4,4}
   + 7 R{4,5} + 7 R{4,6} + 7 R{4,7} + 7 R{4,8} + 7 R{4,9} + 7 R{4,11}
   + 7 R{4,12} + 7 R{4,13} <= 7
 R2_70: 11 R{1,1} + 11 R{1,2} + 11 R{1,5} <= 11
 R2_71: 7 R{3,1} + 7 R{3,2} + 7 R{3,3} + 7 R{3,4} + 7 R{3,6} + 7 R{3,8}
   + 7 R{3,9} + 7 R{3,10} + 7 R{3,11} <= 7
 R2_72: <= 0
 R2_73: <= 0
 R2_74: 5 R{5,1} <= 5
 R2_75: 8 R{6,1} + 8 R{6,2} + 8 R{6,3} + 8 R{6,7} + 8 R{6,9} + 8 R{6,11}
   + 8 R{6,12} + 8 R{6,14} <= 8
 R2_76: 12 R{0,4} + 12 R{0,5} + 12 R{3,3} + 12 R{3,4} + 12 R{3,8}
   + 12 R{3,11} <= 12
 R2_77: 7 R{0,5} + 7 R{0,13} + 7 R{1,2} + 7 R{1,5} + 7 R{1,6} + 7 R{1,7}
   + 7 R{1,8} + 7 R{2,4} + 7 R{2,5} + 7 R{3,5} + 7 R{3,9} + 7 R{3,11}
   + 7 R{4,2} + 7 R{4,10} + 7 R{4,11} + 7 R{4,13} + 7 R{5,2} + 7 R{5,3}
   + 7 R{5,9} + 7 R{5,10} + 7 R{5,12} + 7 R{6,2} + 7 R{6,3} + 7 R{6,7}
   + 7 R{6,8} + 7 R{6,9} + 7 R{6,10} + 7 R{6,11} + 7 R{6,13} + 7 R{6,15}
   <= 7
Bounds
End
